100
90 39
70 39
64 2
60 34
17 7
13 70
55 60
68 54
69 97
95 55
54 59
64 42
23 58
65 79
45 5
100 6
65 21
62 20
75 16
17 46
91 17
10 94
92 70
58 94
87 2
67 13
14 14
25 10
33 100
48 76
14 62
50 26
22 24
83 48
70 24
21 84
97 75
90 52
53 59
26 74
85 11
66 30
52 21
60 92
51 65
13 77
26 92
20 26
87 66
31 44
95 31
78 76
61 54
73 12
58 92
60 15
37 92
83 37
5 51
55 78
37 56
74 59
56 7
34 14
33 90
36 33
12 44
55 51
81 81
91 10
79 93
86 14
90 51
20 81
25 2
39 2
94 47
72 19
30 15
64 77
46 70
83 74
74 68
27 94
87 10
58 46
36 18
55 14
93 70
48 9
14 3
46 32
17 78
76 77
20 58
57 28
21 6
69 97
79 64
33 72
